p cnf 216 1336
1 2 3 4 5 6 0
-1 -2 0
-1 -3 0
-1 -4 0
-1 -5 0
-1 -6 0
-2 -3 0
-2 -4 0
-2 -5 0
-2 -6 0
-3 -4 0
-3 -5 0
-3 -6 0
-4 -5 0
-4 -6 0
-5 -6 0
-1 37 0
-1 7 0
-2 38 0
-2 8 0
-3 39 0
-3 9 0
-4 40 0
-4 10 0
-5 41 0
-5 11 0
-6 42 0
-6 12 0
7 8 9 10 11 12 0
-7 -8 0
-7 -9 0
-7 -10 0
-7 -11 0
-7 -12 0
-8 -9 0
-8 -10 0
-8 -11 0
-8 -12 0
-9 -10 0
-9 -11 0
-9 -12 0
-10 -11 0
-10 -12 0
-11 -12 0
-7 43 1 0
-7 43 13 0
-7 1 13 0
-8 44 2 0
-8 44 14 0
-8 2 14 0
-9 45 3 0
-9 45 15 0
-9 3 15 0
-10 46 4 0
-10 46 16 0
-10 4 16 0
-11 47 5 0
-11 47 17 0
-11 5 17 0
-12 48 6 0
-12 48 18 0
-12 6 18 0
-7 -43 -1 -13 0
-8 -44 -2 -14 0
-9 -45 -3 -15 0
-10 -46 -4 -16 0
-11 -47 -5 -17 0
-12 -48 -6 -18 0
13 14 15 16 17 18 0
-13 -14 0
-13 -15 0
-13 -16 0
-13 -17 0
-13 -18 0
-14 -15 0
-14 -16 0
-14 -17 0
-14 -18 0
-15 -16 0
-15 -17 0
-15 -18 0
-16 -17 0
-16 -18 0
-17 -18 0
-13 49 7 0
-13 49 19 0
-13 7 19 0
-14 50 8 0
-14 50 20 0
-14 8 20 0
-15 51 9 0
-15 51 21 0
-15 9 21 0
-16 52 10 0
-16 52 22 0
-16 10 22 0
-17 53 11 0
-17 53 23 0
-17 11 23 0
-18 54 12 0
-18 54 24 0
-18 12 24 0
-13 -49 -7 -19 0
-14 -50 -8 -20 0
-15 -51 -9 -21 0
-16 -52 -10 -22 0
-17 -53 -11 -23 0
-18 -54 -12 -24 0
19 20 21 22 23 24 0
-19 -20 0
-19 -21 0
-19 -22 0
-19 -23 0
-19 -24 0
-20 -21 0
-20 -22 0
-20 -23 0
-20 -24 0
-21 -22 0
-21 -23 0
-21 -24 0
-22 -23 0
-22 -24 0
-23 -24 0
-19 55 13 0
-19 55 25 0
-19 13 25 0
-20 56 14 0
-20 56 26 0
-20 14 26 0
-21 57 15 0
-21 57 27 0
-21 15 27 0
-22 58 16 0
-22 58 28 0
-22 16 28 0
-23 59 17 0
-23 59 29 0
-23 17 29 0
-24 60 18 0
-24 60 30 0
-24 18 30 0
-19 -55 -13 -25 0
-20 -56 -14 -26 0
-21 -57 -15 -27 0
-22 -58 -16 -28 0
-23 -59 -17 -29 0
-24 -60 -18 -30 0
29 0
-25 0
-26 0
-27 0
-28 0
-30 0
65 23 35 0
-65 -23 0
-65 -35 0
-23 -35 0
33 0
-31 0
-32 0
-34 0
-35 0
-36 0
69 27 0
-69 -27 0
37 38 39 40 41 42 0
-37 -38 0
-37 -39 0
-37 -40 0
-37 -41 0
-37 -42 0
-38 -39 0
-38 -40 0
-38 -41 0
-38 -42 0
-39 -40 0
-39 -41 0
-39 -42 0
-40 -41 0
-40 -42 0
-41 -42 0
-37 73 1 0
-37 73 43 0
-37 1 43 0
-38 74 2 0
-38 74 44 0
-38 2 44 0
-39 75 3 0
-39 75 45 0
-39 3 45 0
-40 76 4 0
-40 76 46 0
-40 4 46 0
-41 77 5 0
-41 77 47 0
-41 5 47 0
-42 78 6 0
-42 78 48 0
-42 6 48 0
-37 -73 -1 -43 0
-38 -74 -2 -44 0
-39 -75 -3 -45 0
-40 -76 -4 -46 0
-41 -77 -5 -47 0
-42 -78 -6 -48 0
43 0
-44 0
-45 0
-46 0
-47 0
-48 0
79 7 49 37 0
-79 -7 0
-79 -49 0
-79 -37 0
-7 -49 0
-7 -37 0
-49 -37 0
49 50 51 52 53 54 0
-49 -50 0
-49 -51 0
-49 -52 0
-49 -53 0
-49 -54 0
-50 -51 0
-50 -52 0
-50 -53 0
-50 -54 0
-51 -52 0
-51 -53 0
-51 -54 0
-52 -53 0
-52 -54 0
-53 -54 0
-49 85 13 55 0
-49 85 13 43 0
-49 85 55 43 0
-49 13 55 43 0
-50 86 14 56 0
-50 86 14 44 0
-50 86 56 44 0
-50 14 56 44 0
-51 87 15 57 0
-51 87 15 45 0
-51 87 57 45 0
-51 15 57 45 0
-52 88 16 58 0
-52 88 16 46 0
-52 88 58 46 0
-52 16 58 46 0
-53 89 17 59 0
-53 89 17 47 0
-53 89 59 47 0
-53 17 59 47 0
-54 90 18 60 0
-54 90 18 48 0
-54 90 60 48 0
-54 18 60 48 0
-49 -85 -13 -55 0
-49 -85 -13 -43 0
-49 -85 -55 -43 0
-49 -13 -55 -43 0
-50 -86 -14 -56 0
-50 -86 -14 -44 0
-50 -86 -56 -44 0
-50 -14 -56 -44 0
-51 -87 -15 -57 0
-51 -87 -15 -45 0
-51 -87 -57 -45 0
-51 -15 -57 -45 0
-52 -88 -16 -58 0
-52 -88 -16 -46 0
-52 -88 -58 -46 0
-52 -16 -58 -46 0
-53 -89 -17 -59 0
-53 -89 -17 -47 0
-53 -89 -59 -47 0
-53 -17 -59 -47 0
-54 -90 -18 -60 0
-54 -90 -18 -48 0
-54 -90 -60 -48 0
-54 -18 -60 -48 0
55 56 57 58 59 60 0
-55 -56 0
-55 -57 0
-55 -58 0
-55 -59 0
-55 -60 0
-56 -57 0
-56 -58 0
-56 -59 0
-56 -60 0
-57 -58 0
-57 -59 0
-57 -60 0
-58 -59 0
-58 -60 0
-59 -60 0
-55 91 19 61 0
-55 91 19 49 0
-55 91 61 49 0
-55 19 61 49 0
-56 92 20 62 0
-56 92 20 50 0
-56 92 62 50 0
-56 20 62 50 0
-57 93 21 63 0
-57 93 21 51 0
-57 93 63 51 0
-57 21 63 51 0
-58 94 22 64 0
-58 94 22 52 0
-58 94 64 52 0
-58 22 64 52 0
-59 95 23 65 0
-59 95 23 53 0
-59 95 65 53 0
-59 23 65 53 0
-60 96 24 66 0
-60 96 24 54 0
-60 96 66 54 0
-60 24 66 54 0
-55 -91 -19 -61 0
-55 -91 -19 -49 0
-55 -91 -61 -49 0
-55 -19 -61 -49 0
-56 -92 -20 -62 0
-56 -92 -20 -50 0
-56 -92 -62 -50 0
-56 -20 -62 -50 0
-57 -93 -21 -63 0
-57 -93 -21 -51 0
-57 -93 -63 -51 0
-57 -21 -63 -51 0
-58 -94 -22 -64 0
-58 -94 -22 -52 0
-58 -94 -64 -52 0
-58 -22 -64 -52 0
-59 -95 -23 -65 0
-59 -95 -23 -53 0
-59 -95 -65 -53 0
-59 -23 -65 -53 0
-60 -96 -24 -66 0
-60 -96 -24 -54 0
-60 -96 -66 -54 0
-60 -24 -66 -54 0
61 62 63 64 65 66 0
-61 -62 0
-61 -63 0
-61 -64 0
-61 -65 0
-61 -66 0
-62 -63 0
-62 -64 0
-62 -65 0
-62 -66 0
-63 -64 0
-63 -65 0
-63 -66 0
-64 -65 0
-64 -66 0
-65 -66 0
-61 97 25 67 0
-61 97 25 55 0
-61 97 67 55 0
-61 25 67 55 0
-62 98 26 68 0
-62 98 26 56 0
-62 98 68 56 0
-62 26 68 56 0
-63 99 27 69 0
-63 99 27 57 0
-63 99 69 57 0
-63 27 69 57 0
-64 100 28 70 0
-64 100 28 58 0
-64 100 70 58 0
-64 28 70 58 0
-65 101 29 71 0
-65 101 29 59 0
-65 101 71 59 0
-65 29 71 59 0
-66 102 30 72 0
-66 102 30 60 0
-66 102 72 60 0
-66 30 72 60 0
-61 -97 -25 -67 0
-61 -97 -25 -55 0
-61 -97 -67 -55 0
-61 -25 -67 -55 0
-62 -98 -26 -68 0
-62 -98 -26 -56 0
-62 -98 -68 -56 0
-62 -26 -68 -56 0
-63 -99 -27 -69 0
-63 -99 -27 -57 0
-63 -99 -69 -57 0
-63 -27 -69 -57 0
-64 -100 -28 -70 0
-64 -100 -28 -58 0
-64 -100 -70 -58 0
-64 -28 -70 -58 0
-65 -101 -29 -71 0
-65 -101 -29 -59 0
-65 -101 -71 -59 0
-65 -29 -71 -59 0
-66 -102 -30 -72 0
-66 -102 -30 -60 0
-66 -102 -72 -60 0
-66 -30 -72 -60 0
67 68 69 70 71 72 0
-67 -68 0
-67 -69 0
-67 -70 0
-67 -71 0
-67 -72 0
-68 -69 0
-68 -70 0
-68 -71 0
-68 -72 0
-69 -70 0
-69 -71 0
-69 -72 0
-70 -71 0
-70 -72 0
-71 -72 0
-67 103 31 0
-67 103 61 0
-67 31 61 0
-68 104 32 0
-68 104 62 0
-68 32 62 0
-69 105 33 0
-69 105 63 0
-69 33 63 0
-70 106 34 0
-70 106 64 0
-70 34 64 0
-71 107 35 0
-71 107 65 0
-71 35 65 0
-72 108 36 0
-72 108 66 0
-72 36 66 0
-67 -103 -31 -61 0
-68 -104 -32 -62 0
-69 -105 -33 -63 0
-70 -106 -34 -64 0
-71 -107 -35 -65 0
-72 -108 -36 -66 0
73 74 75 76 77 78 0
-73 -74 0
-73 -75 0
-73 -76 0
-73 -77 0
-73 -78 0
-74 -75 0
-74 -76 0
-74 -77 0
-74 -78 0
-75 -76 0
-75 -77 0
-75 -78 0
-76 -77 0
-76 -78 0
-77 -78 0
-73 109 37 0
-73 109 79 0
-73 37 79 0
-74 110 38 0
-74 110 80 0
-74 38 80 0
-75 111 39 0
-75 111 81 0
-75 39 81 0
-76 112 40 0
-76 112 82 0
-76 40 82 0
-77 113 41 0
-77 113 83 0
-77 41 83 0
-78 114 42 0
-78 114 84 0
-78 42 84 0
-73 -109 -37 -79 0
-74 -110 -38 -80 0
-75 -111 -39 -81 0
-76 -112 -40 -82 0
-77 -113 -41 -83 0
-78 -114 -42 -84 0
80 0
-79 0
-81 0
-82 0
-83 0
-84 0
116 44 86 74 0
-116 -44 0
-116 -86 0
-116 -74 0
-44 -86 0
-44 -74 0
-86 -74 0
85 86 87 88 89 90 0
-85 -86 0
-85 -87 0
-85 -88 0
-85 -89 0
-85 -90 0
-86 -87 0
-86 -88 0
-86 -89 0
-86 -90 0
-87 -88 0
-87 -89 0
-87 -90 0
-88 -89 0
-88 -90 0
-89 -90 0
-85 121 49 91 0
-85 121 49 79 0
-85 121 91 79 0
-85 49 91 79 0
-86 122 50 92 0
-86 122 50 80 0
-86 122 92 80 0
-86 50 92 80 0
-87 123 51 93 0
-87 123 51 81 0
-87 123 93 81 0
-87 51 93 81 0
-88 124 52 94 0
-88 124 52 82 0
-88 124 94 82 0
-88 52 94 82 0
-89 125 53 95 0
-89 125 53 83 0
-89 125 95 83 0
-89 53 95 83 0
-90 126 54 96 0
-90 126 54 84 0
-90 126 96 84 0
-90 54 96 84 0
-85 -121 -49 -91 0
-85 -121 -49 -79 0
-85 -121 -91 -79 0
-85 -49 -91 -79 0
-86 -122 -50 -92 0
-86 -122 -50 -80 0
-86 -122 -92 -80 0
-86 -50 -92 -80 0
-87 -123 -51 -93 0
-87 -123 -51 -81 0
-87 -123 -93 -81 0
-87 -51 -93 -81 0
-88 -124 -52 -94 0
-88 -124 -52 -82 0
-88 -124 -94 -82 0
-88 -52 -94 -82 0
-89 -125 -53 -95 0
-89 -125 -53 -83 0
-89 -125 -95 -83 0
-89 -53 -95 -83 0
-90 -126 -54 -96 0
-90 -126 -54 -84 0
-90 -126 -96 -84 0
-90 -54 -96 -84 0
96 0
-91 0
-92 0
-93 0
-94 0
-95 0
132 60 102 90 0
-132 -60 0
-132 -102 0
-132 -90 0
-60 -102 0
-60 -90 0
-102 -90 0
97 98 99 100 101 102 0
-97 -98 0
-97 -99 0
-97 -100 0
-97 -101 0
-97 -102 0
-98 -99 0
-98 -100 0
-98 -101 0
-98 -102 0
-99 -100 0
-99 -101 0
-99 -102 0
-100 -101 0
-100 -102 0
-101 -102 0
-97 133 61 103 0
-97 133 61 91 0
-97 133 103 91 0
-97 61 103 91 0
-98 134 62 104 0
-98 134 62 92 0
-98 134 104 92 0
-98 62 104 92 0
-99 135 63 105 0
-99 135 63 93 0
-99 135 105 93 0
-99 63 105 93 0
-100 136 64 106 0
-100 136 64 94 0
-100 136 106 94 0
-100 64 106 94 0
-101 137 65 107 0
-101 137 65 95 0
-101 137 107 95 0
-101 65 107 95 0
-102 138 66 108 0
-102 138 66 96 0
-102 138 108 96 0
-102 66 108 96 0
-97 -133 -61 -103 0
-97 -133 -61 -91 0
-97 -133 -103 -91 0
-97 -61 -103 -91 0
-98 -134 -62 -104 0
-98 -134 -62 -92 0
-98 -134 -104 -92 0
-98 -62 -104 -92 0
-99 -135 -63 -105 0
-99 -135 -63 -93 0
-99 -135 -105 -93 0
-99 -63 -105 -93 0
-100 -136 -64 -106 0
-100 -136 -64 -94 0
-100 -136 -106 -94 0
-100 -64 -106 -94 0
-101 -137 -65 -107 0
-101 -137 -65 -95 0
-101 -137 -107 -95 0
-101 -65 -107 -95 0
-102 -138 -66 -108 0
-102 -138 -66 -96 0
-102 -138 -108 -96 0
-102 -66 -108 -96 0
103 104 105 106 107 108 0
-103 -104 0
-103 -105 0
-103 -106 0
-103 -107 0
-103 -108 0
-104 -105 0
-104 -106 0
-104 -107 0
-104 -108 0
-105 -106 0
-105 -107 0
-105 -108 0
-106 -107 0
-106 -108 0
-107 -108 0
-103 139 67 0
-103 139 97 0
-103 67 97 0
-104 140 68 0
-104 140 98 0
-104 68 98 0
-105 141 69 0
-105 141 99 0
-105 69 99 0
-106 142 70 0
-106 142 100 0
-106 70 100 0
-107 143 71 0
-107 143 101 0
-107 71 101 0
-108 144 72 0
-108 144 102 0
-108 72 102 0
-103 -139 -67 -97 0
-104 -140 -68 -98 0
-105 -141 -69 -99 0
-106 -142 -70 -100 0
-107 -143 -71 -101 0
-108 -144 -72 -102 0
109 110 111 112 113 114 0
-109 -110 0
-109 -111 0
-109 -112 0
-109 -113 0
-109 -114 0
-110 -111 0
-110 -112 0
-110 -113 0
-110 -114 0
-111 -112 0
-111 -113 0
-111 -114 0
-112 -113 0
-112 -114 0
-113 -114 0
-109 145 73 0
-109 145 115 0
-109 73 115 0
-110 146 74 0
-110 146 116 0
-110 74 116 0
-111 147 75 0
-111 147 117 0
-111 75 117 0
-112 148 76 0
-112 148 118 0
-112 76 118 0
-113 149 77 0
-113 149 119 0
-113 77 119 0
-114 150 78 0
-114 150 120 0
-114 78 120 0
-109 -145 -73 -115 0
-110 -146 -74 -116 0
-111 -147 -75 -117 0
-112 -148 -76 -118 0
-113 -149 -77 -119 0
-114 -150 -78 -120 0
115 116 117 118 119 120 0
-115 -116 0
-115 -117 0
-115 -118 0
-115 -119 0
-115 -120 0
-116 -117 0
-116 -118 0
-116 -119 0
-116 -120 0
-117 -118 0
-117 -119 0
-117 -120 0
-118 -119 0
-118 -120 0
-119 -120 0
-115 151 79 121 0
-115 151 79 109 0
-115 151 121 109 0
-115 79 121 109 0
-116 152 80 122 0
-116 152 80 110 0
-116 152 122 110 0
-116 80 122 110 0
-117 153 81 123 0
-117 153 81 111 0
-117 153 123 111 0
-117 81 123 111 0
-118 154 82 124 0
-118 154 82 112 0
-118 154 124 112 0
-118 82 124 112 0
-119 155 83 125 0
-119 155 83 113 0
-119 155 125 113 0
-119 83 125 113 0
-120 156 84 126 0
-120 156 84 114 0
-120 156 126 114 0
-120 84 126 114 0
-115 -151 -79 -121 0
-115 -151 -79 -109 0
-115 -151 -121 -109 0
-115 -79 -121 -109 0
-116 -152 -80 -122 0
-116 -152 -80 -110 0
-116 -152 -122 -110 0
-116 -80 -122 -110 0
-117 -153 -81 -123 0
-117 -153 -81 -111 0
-117 -153 -123 -111 0
-117 -81 -123 -111 0
-118 -154 -82 -124 0
-118 -154 -82 -112 0
-118 -154 -124 -112 0
-118 -82 -124 -112 0
-119 -155 -83 -125 0
-119 -155 -83 -113 0
-119 -155 -125 -113 0
-119 -83 -125 -113 0
-120 -156 -84 -126 0
-120 -156 -84 -114 0
-120 -156 -126 -114 0
-120 -84 -126 -114 0
121 122 123 124 125 126 0
-121 -122 0
-121 -123 0
-121 -124 0
-121 -125 0
-121 -126 0
-122 -123 0
-122 -124 0
-122 -125 0
-122 -126 0
-123 -124 0
-123 -125 0
-123 -126 0
-124 -125 0
-124 -126 0
-125 -126 0
-121 157 85 127 0
-121 157 85 115 0
-121 157 127 115 0
-121 85 127 115 0
-122 158 86 128 0
-122 158 86 116 0
-122 158 128 116 0
-122 86 128 116 0
-123 159 87 129 0
-123 159 87 117 0
-123 159 129 117 0
-123 87 129 117 0
-124 160 88 130 0
-124 160 88 118 0
-124 160 130 118 0
-124 88 130 118 0
-125 161 89 131 0
-125 161 89 119 0
-125 161 131 119 0
-125 89 131 119 0
-126 162 90 132 0
-126 162 90 120 0
-126 162 132 120 0
-126 90 132 120 0
-121 -157 -85 -127 0
-121 -157 -85 -115 0
-121 -157 -127 -115 0
-121 -85 -127 -115 0
-122 -158 -86 -128 0
-122 -158 -86 -116 0
-122 -158 -128 -116 0
-122 -86 -128 -116 0
-123 -159 -87 -129 0
-123 -159 -87 -117 0
-123 -159 -129 -117 0
-123 -87 -129 -117 0
-124 -160 -88 -130 0
-124 -160 -88 -118 0
-124 -160 -130 -118 0
-124 -88 -130 -118 0
-125 -161 -89 -131 0
-125 -161 -89 -119 0
-125 -161 -131 -119 0
-125 -89 -131 -119 0
-126 -162 -90 -132 0
-126 -162 -90 -120 0
-126 -162 -132 -120 0
-126 -90 -132 -120 0
130 0
-127 0
-128 0
-129 0
-131 0
-132 0
166 94 136 124 0
-166 -94 0
-166 -136 0
-166 -124 0
-94 -136 0
-94 -124 0
-136 -124 0
137 0
-133 0
-134 0
-135 0
-136 0
-138 0
173 101 143 131 0
-173 -101 0
-173 -143 0
-173 -131 0
-101 -143 0
-101 -131 0
-143 -131 0
139 140 141 142 143 144 0
-139 -140 0
-139 -141 0
-139 -142 0
-139 -143 0
-139 -144 0
-140 -141 0
-140 -142 0
-140 -143 0
-140 -144 0
-141 -142 0
-141 -143 0
-141 -144 0
-142 -143 0
-142 -144 0
-143 -144 0
-139 175 103 0
-139 175 133 0
-139 103 133 0
-140 176 104 0
-140 176 134 0
-140 104 134 0
-141 177 105 0
-141 177 135 0
-141 105 135 0
-142 178 106 0
-142 178 136 0
-142 106 136 0
-143 179 107 0
-143 179 137 0
-143 107 137 0
-144 180 108 0
-144 180 138 0
-144 108 138 0
-139 -175 -103 -133 0
-140 -176 -104 -134 0
-141 -177 -105 -135 0
-142 -178 -106 -136 0
-143 -179 -107 -137 0
-144 -180 -108 -138 0
150 0
-145 0
-146 0
-147 0
-148 0
-149 0
186 114 156 0
-186 -114 0
-186 -156 0
-114 -156 0
151 152 153 154 155 156 0
-151 -152 0
-151 -153 0
-151 -154 0
-151 -155 0
-151 -156 0
-152 -153 0
-152 -154 0
-152 -155 0
-152 -156 0
-153 -154 0
-153 -155 0
-153 -156 0
-154 -155 0
-154 -156 0
-155 -156 0
-151 187 115 157 0
-151 187 115 145 0
-151 187 157 145 0
-151 115 157 145 0
-152 188 116 158 0
-152 188 116 146 0
-152 188 158 146 0
-152 116 158 146 0
-153 189 117 159 0
-153 189 117 147 0
-153 189 159 147 0
-153 117 159 147 0
-154 190 118 160 0
-154 190 118 148 0
-154 190 160 148 0
-154 118 160 148 0
-155 191 119 161 0
-155 191 119 149 0
-155 191 161 149 0
-155 119 161 149 0
-156 192 120 162 0
-156 192 120 150 0
-156 192 162 150 0
-156 120 162 150 0
-151 -187 -115 -157 0
-151 -187 -115 -145 0
-151 -187 -157 -145 0
-151 -115 -157 -145 0
-152 -188 -116 -158 0
-152 -188 -116 -146 0
-152 -188 -158 -146 0
-152 -116 -158 -146 0
-153 -189 -117 -159 0
-153 -189 -117 -147 0
-153 -189 -159 -147 0
-153 -117 -159 -147 0
-154 -190 -118 -160 0
-154 -190 -118 -148 0
-154 -190 -160 -148 0
-154 -118 -160 -148 0
-155 -191 -119 -161 0
-155 -191 -119 -149 0
-155 -191 -161 -149 0
-155 -119 -161 -149 0
-156 -192 -120 -162 0
-156 -192 -120 -150 0
-156 -192 -162 -150 0
-156 -120 -162 -150 0
157 158 159 160 161 162 0
-157 -158 0
-157 -159 0
-157 -160 0
-157 -161 0
-157 -162 0
-158 -159 0
-158 -160 0
-158 -161 0
-158 -162 0
-159 -160 0
-159 -161 0
-159 -162 0
-160 -161 0
-160 -162 0
-161 -162 0
-157 193 121 163 0
-157 193 121 151 0
-157 193 163 151 0
-157 121 163 151 0
-158 194 122 164 0
-158 194 122 152 0
-158 194 164 152 0
-158 122 164 152 0
-159 195 123 165 0
-159 195 123 153 0
-159 195 165 153 0
-159 123 165 153 0
-160 196 124 166 0
-160 196 124 154 0
-160 196 166 154 0
-160 124 166 154 0
-161 197 125 167 0
-161 197 125 155 0
-161 197 167 155 0
-161 125 167 155 0
-162 198 126 168 0
-162 198 126 156 0
-162 198 168 156 0
-162 126 168 156 0
-157 -193 -121 -163 0
-157 -193 -121 -151 0
-157 -193 -163 -151 0
-157 -121 -163 -151 0
-158 -194 -122 -164 0
-158 -194 -122 -152 0
-158 -194 -164 -152 0
-158 -122 -164 -152 0
-159 -195 -123 -165 0
-159 -195 -123 -153 0
-159 -195 -165 -153 0
-159 -123 -165 -153 0
-160 -196 -124 -166 0
-160 -196 -124 -154 0
-160 -196 -166 -154 0
-160 -124 -166 -154 0
-161 -197 -125 -167 0
-161 -197 -125 -155 0
-161 -197 -167 -155 0
-161 -125 -167 -155 0
-162 -198 -126 -168 0
-162 -198 -126 -156 0
-162 -198 -168 -156 0
-162 -126 -168 -156 0
163 164 165 166 167 168 0
-163 -164 0
-163 -165 0
-163 -166 0
-163 -167 0
-163 -168 0
-164 -165 0
-164 -166 0
-164 -167 0
-164 -168 0
-165 -166 0
-165 -167 0
-165 -168 0
-166 -167 0
-166 -168 0
-167 -168 0
-163 199 127 169 0
-163 199 127 157 0
-163 199 169 157 0
-163 127 169 157 0
-164 200 128 170 0
-164 200 128 158 0
-164 200 170 158 0
-164 128 170 158 0
-165 201 129 171 0
-165 201 129 159 0
-165 201 171 159 0
-165 129 171 159 0
-166 202 130 172 0
-166 202 130 160 0
-166 202 172 160 0
-166 130 172 160 0
-167 203 131 173 0
-167 203 131 161 0
-167 203 173 161 0
-167 131 173 161 0
-168 204 132 174 0
-168 204 132 162 0
-168 204 174 162 0
-168 132 174 162 0
-163 -199 -127 -169 0
-163 -199 -127 -157 0
-163 -199 -169 -157 0
-163 -127 -169 -157 0
-164 -200 -128 -170 0
-164 -200 -128 -158 0
-164 -200 -170 -158 0
-164 -128 -170 -158 0
-165 -201 -129 -171 0
-165 -201 -129 -159 0
-165 -201 -171 -159 0
-165 -129 -171 -159 0
-166 -202 -130 -172 0
-166 -202 -130 -160 0
-166 -202 -172 -160 0
-166 -130 -172 -160 0
-167 -203 -131 -173 0
-167 -203 -131 -161 0
-167 -203 -173 -161 0
-167 -131 -173 -161 0
-168 -204 -132 -174 0
-168 -204 -132 -162 0
-168 -204 -174 -162 0
-168 -132 -174 -162 0
172 0
-169 0
-170 0
-171 0
-173 0
-174 0
208 136 178 166 0
-208 -136 0
-208 -178 0
-208 -166 0
-136 -178 0
-136 -166 0
-178 -166 0
175 176 177 178 179 180 0
-175 -176 0
-175 -177 0
-175 -178 0
-175 -179 0
-175 -180 0
-176 -177 0
-176 -178 0
-176 -179 0
-176 -180 0
-177 -178 0
-177 -179 0
-177 -180 0
-178 -179 0
-178 -180 0
-179 -180 0
-175 211 139 0
-175 211 169 0
-175 139 169 0
-176 212 140 0
-176 212 170 0
-176 140 170 0
-177 213 141 0
-177 213 171 0
-177 141 171 0
-178 214 142 0
-178 214 172 0
-178 142 172 0
-179 215 143 0
-179 215 173 0
-179 143 173 0
-180 216 144 0
-180 216 174 0
-180 144 174 0
-175 -211 -139 -169 0
-176 -212 -140 -170 0
-177 -213 -141 -171 0
-178 -214 -142 -172 0
-179 -215 -143 -173 0
-180 -216 -144 -174 0
182 0
-181 0
-183 0
-184 0
-185 0
-186 0
146 188 0
-146 -188 0
187 188 189 190 191 192 0
-187 -188 0
-187 -189 0
-187 -190 0
-187 -191 0
-187 -192 0
-188 -189 0
-188 -190 0
-188 -191 0
-188 -192 0
-189 -190 0
-189 -191 0
-189 -192 0
-190 -191 0
-190 -192 0
-191 -192 0
-187 181 151 0
-187 151 193 0
-187 181 193 0
-188 182 152 0
-188 152 194 0
-188 182 194 0
-189 183 153 0
-189 153 195 0
-189 183 195 0
-190 184 154 0
-190 154 196 0
-190 184 196 0
-191 185 155 0
-191 155 197 0
-191 185 197 0
-192 186 156 0
-192 156 198 0
-192 186 198 0
-187 -151 -181 -193 0
-188 -152 -182 -194 0
-189 -153 -183 -195 0
-190 -154 -184 -196 0
-191 -155 -185 -197 0
-192 -156 -186 -198 0
193 194 195 196 197 198 0
-193 -194 0
-193 -195 0
-193 -196 0
-193 -197 0
-193 -198 0
-194 -195 0
-194 -196 0
-194 -197 0
-194 -198 0
-195 -196 0
-195 -197 0
-195 -198 0
-196 -197 0
-196 -198 0
-197 -198 0
-193 187 157 0
-193 157 199 0
-193 187 199 0
-194 188 158 0
-194 158 200 0
-194 188 200 0
-195 189 159 0
-195 159 201 0
-195 189 201 0
-196 190 160 0
-196 160 202 0
-196 190 202 0
-197 191 161 0
-197 161 203 0
-197 191 203 0
-198 192 162 0
-198 162 204 0
-198 192 204 0
-193 -157 -187 -199 0
-194 -158 -188 -200 0
-195 -159 -189 -201 0
-196 -160 -190 -202 0
-197 -161 -191 -203 0
-198 -162 -192 -204 0
199 200 201 202 203 204 0
-199 -200 0
-199 -201 0
-199 -202 0
-199 -203 0
-199 -204 0
-200 -201 0
-200 -202 0
-200 -203 0
-200 -204 0
-201 -202 0
-201 -203 0
-201 -204 0
-202 -203 0
-202 -204 0
-203 -204 0
-199 193 163 0
-199 163 205 0
-199 193 205 0
-200 194 164 0
-200 164 206 0
-200 194 206 0
-201 195 165 0
-201 165 207 0
-201 195 207 0
-202 196 166 0
-202 166 208 0
-202 196 208 0
-203 197 167 0
-203 167 209 0
-203 197 209 0
-204 198 168 0
-204 168 210 0
-204 198 210 0
-199 -163 -193 -205 0
-200 -164 -194 -206 0
-201 -165 -195 -207 0
-202 -166 -196 -208 0
-203 -167 -197 -209 0
-204 -168 -198 -210 0
205 0
-206 0
-207 0
-208 0
-209 0
-210 0
199 169 211 0
-199 -169 0
-199 -211 0
-169 -211 0
213 0
-211 0
-212 0
-214 0
-215 0
-216 0
177 207 0
-177 -207 0
73 85 97 103 0
109 115 121 139 0
151 157 163 175 0
13 49 85 121 157 193 0
19 55 163 199 0
110 116 122 140 0
152 158 164 176 0
39 51 57 63 69 0
75 87 99 105 0
111 117 123 141 0
153 159 165 177 0
41 53 59 65 71 0
77 89 101 107 0
114 120 126 144 0
12 120 156 192 0
18 54 90 126 162 198 0